certificates/rado_a9_c110_N18.cnf
c Rad2 upper bound instance: x1 + 9*x2 - x3 = 110, interval [1,18]
p cnf 18 72
1 8 13 0
-1 -8 -13 0
1 14 17 0
-1 -14 -17 0
2 9 13 0
-2 -9 -13 0
2 14 18 0
-2 -14 -18 0
1 3 12 0
-1 -3 -12 0
3 10 13 0
-3 -10 -13 0
2 4 12 0
-2 -4 -12 0
4 11 13 0
-4 -11 -13 0
3 5 12 0
-3 -5 -12 0
5 12 13 0
-5 -12 -13 0
4 6 12 0
-4 -6 -12 0
6 13 0
-6 -13 0
5 7 12 0
-5 -7 -12 0
7 13 14 0
-7 -13 -14 0
6 8 12 0
-6 -8 -12 0
8 13 15 0
-8 -13 -15 0
7 9 12 0
-7 -9 -12 0
9 13 16 0
-9 -13 -16 0
8 10 12 0
-8 -10 -12 0
10 13 17 0
-10 -13 -17 0
9 11 12 0
-9 -11 -12 0
11 13 18 0
-11 -13 -18 0
1 11 12 0
-1 -11 -12 0
10 12 0
-10 -12 0
2 11 13 0
-2 -11 -13 0
11 12 13 0
-11 -12 -13 0
3 11 14 0
-3 -11 -14 0
12 14 0
-12 -14 0
4 11 15 0
-4 -11 -15 0
12 13 15 0
-12 -13 -15 0
5 11 16 0
-5 -11 -16 0
12 14 16 0
-12 -14 -16 0
6 11 17 0
-6 -11 -17 0
12 15 17 0
-12 -15 -17 0
7 11 18 0
-7 -11 -18 0
12 16 18 0
-12 -16 -18 0
