certificates/rado_a9_c110_N18.drat
12 -17 0
13 -17 0
-17 -18 0
-13 -18 0
-18 0
13 17 0
d 10 13 17 0
-11 -13 0
d -4 -11 -13 0
17 0
12 0
13 0
-10 0
-14 0
-15 0
-5 0
-11 0
-6 0
2 0
3 0
4 0
16 0
7 0
0
